; 
(set-info :status unknown)
(declare-fun standard_metadata.ingress_port () (_ BitVec 9))
(declare-fun standard_metadata.egress_spec () (_ BitVec 9))
(declare-fun ethernet.dst_addr () (_ BitVec 48))
(assert
 (let (($x173 (= standard_metadata.ingress_port (_ bv19 9))))
 (let (($x168 (= standard_metadata.ingress_port (_ bv18 9))))
 (let (($x163 (= standard_metadata.ingress_port (_ bv17 9))))
 (let (($x158 (= standard_metadata.ingress_port (_ bv16 9))))
 (let (($x153 (= standard_metadata.ingress_port (_ bv15 9))))
 (let (($x148 (= standard_metadata.ingress_port (_ bv14 9))))
 (let (($x143 (= standard_metadata.ingress_port (_ bv13 9))))
 (let (($x138 (= standard_metadata.ingress_port (_ bv12 9))))
 (let (($x133 (= standard_metadata.ingress_port (_ bv11 9))))
 (let (($x128 (= standard_metadata.ingress_port (_ bv10 9))))
 (let (($x123 (= standard_metadata.ingress_port (_ bv9 9))))
 (let (($x118 (= standard_metadata.ingress_port (_ bv8 9))))
 (let (($x113 (= standard_metadata.ingress_port (_ bv7 9))))
 (let (($x108 (= standard_metadata.ingress_port (_ bv6 9))))
 (let (($x103 (= standard_metadata.ingress_port (_ bv5 9))))
 (let (($x98 (= standard_metadata.ingress_port (_ bv4 9))))
 (let (($x93 (= standard_metadata.ingress_port (_ bv3 9))))
 (let (($x88 (= standard_metadata.ingress_port (_ bv2 9))))
 (let (($x83 (= standard_metadata.ingress_port (_ bv1 9))))
 (let (($x89 (or (or (or false (= standard_metadata.ingress_port (_ bv0 9))) $x83) $x88)))
 (let (($x124 (or (or (or (or (or (or (or $x89 $x93) $x98) $x103) $x108) $x113) $x118) $x123)))
 (let (($x159 (or (or (or (or (or (or (or $x124 $x128) $x133) $x138) $x143) $x148) $x153) $x158)))
 (or (or (or $x159 $x163) $x168) $x173))))))))))))))))))))))))
(assert
 (let (($x40 (bvugt standard_metadata.ingress_port (concat (_ bv0 5) (_ bv15 4)))))
 (let (($x34 (bvugt standard_metadata.ingress_port (concat (_ bv0 5) (_ bv10 4)))))
 (let (($x36 (and true $x34)))
 (let (($x42 (and $x36 $x40)))
 (let (($x43 (and $x36 (not $x40))))
 (let (($x53 (bvugt standard_metadata.ingress_port (concat (_ bv0 6) (_ bv5 3)))))
 (let (($x37 (and true (not $x34))))
 (let (($x55 (and $x37 $x53)))
 (let ((?x57 (ite $x55 (_ bv511 9) (ite $x43 (_ bv511 9) (ite $x42 (_ bv511 9) standard_metadata.egress_spec)))))
 (let (($x56 (and $x37 (not $x53))))
 (let ((?x69 (ite (and true (not (and true (= ethernet.dst_addr (_ bv1 48))))) (_ bv511 9) (ite $x56 (_ bv511 9) ?x57))))
 (let (($x64 (= ethernet.dst_addr (_ bv1 48))))
 (let (($x65 (and true $x64)))
 (let (($x66 (and true $x65)))
 (let ((?x74 (ite $x66 (_ bv1 9) ?x69)))
 (let (($x96 (or (or (or (or false (= ?x74 (_ bv0 9))) (= ?x74 (_ bv1 9))) (= ?x74 (_ bv2 9))) (= ?x74 (_ bv3 9)))))
 (let (($x116 (or (or (or (or $x96 (= ?x74 (_ bv4 9))) (= ?x74 (_ bv5 9))) (= ?x74 (_ bv6 9))) (= ?x74 (_ bv7 9)))))
 (let (($x136 (or (or (or (or $x116 (= ?x74 (_ bv8 9))) (= ?x74 (_ bv9 9))) (= ?x74 (_ bv10 9))) (= ?x74 (_ bv11 9)))))
 (let (($x156 (or (or (or (or $x136 (= ?x74 (_ bv12 9))) (= ?x74 (_ bv13 9))) (= ?x74 (_ bv14 9))) (= ?x74 (_ bv15 9)))))
 (let (($x176 (or (or (or (or $x156 (= ?x74 (_ bv16 9))) (= ?x74 (_ bv17 9))) (= ?x74 (_ bv18 9))) (= ?x74 (_ bv19 9)))))
 (let (($x76 (= ?x74 (_ bv511 9))))
 (or $x76 $x176)))))))))))))))))))))))
(assert
 (let (($x53 (bvugt standard_metadata.ingress_port (concat (_ bv0 6) (_ bv5 3)))))
 (let (($x37 (and true (not (bvugt standard_metadata.ingress_port (concat (_ bv0 5) (_ bv10 4)))))))
 (let (($x55 (and $x37 $x53)))
 (let (($x40 (bvugt standard_metadata.ingress_port (concat (_ bv0 5) (_ bv15 4)))))
 (let (($x34 (bvugt standard_metadata.ingress_port (concat (_ bv0 5) (_ bv10 4)))))
 (let (($x36 (and true $x34)))
 (let (($x42 (and $x36 $x40)))
 (let (($x61 (ite $x34 (ite $x40 $x42 false) (ite $x53 $x55 false))))
 (let (($x43 (and $x36 (not $x40))))
 (let ((?x57 (ite $x55 (_ bv511 9) (ite $x43 (_ bv511 9) (ite $x42 (_ bv511 9) standard_metadata.egress_spec)))))
 (let (($x56 (and $x37 (not $x53))))
 (let ((?x69 (ite (and true (not (and true (= ethernet.dst_addr (_ bv1 48))))) (_ bv511 9) (ite $x56 (_ bv511 9) ?x57))))
 (let (($x64 (= ethernet.dst_addr (_ bv1 48))))
 (let (($x65 (and true $x64)))
 (let (($x66 (and true $x65)))
 (let ((?x74 (ite $x66 (_ bv1 9) ?x69)))
 (let (($x76 (= ?x74 (_ bv511 9))))
 (and (and (not $x76) $x61) (= (- 1) (- 1)))))))))))))))))))))
(check-sat)

; 
(set-info :status unknown)
(declare-fun standard_metadata.ingress_port () (_ BitVec 9))
(declare-fun standard_metadata.egress_spec () (_ BitVec 9))
(declare-fun ethernet.dst_addr () (_ BitVec 48))
(assert
 (let (($x173 (= standard_metadata.ingress_port (_ bv19 9))))
 (let (($x168 (= standard_metadata.ingress_port (_ bv18 9))))
 (let (($x163 (= standard_metadata.ingress_port (_ bv17 9))))
 (let (($x158 (= standard_metadata.ingress_port (_ bv16 9))))
 (let (($x153 (= standard_metadata.ingress_port (_ bv15 9))))
 (let (($x148 (= standard_metadata.ingress_port (_ bv14 9))))
 (let (($x143 (= standard_metadata.ingress_port (_ bv13 9))))
 (let (($x138 (= standard_metadata.ingress_port (_ bv12 9))))
 (let (($x133 (= standard_metadata.ingress_port (_ bv11 9))))
 (let (($x128 (= standard_metadata.ingress_port (_ bv10 9))))
 (let (($x123 (= standard_metadata.ingress_port (_ bv9 9))))
 (let (($x118 (= standard_metadata.ingress_port (_ bv8 9))))
 (let (($x113 (= standard_metadata.ingress_port (_ bv7 9))))
 (let (($x108 (= standard_metadata.ingress_port (_ bv6 9))))
 (let (($x103 (= standard_metadata.ingress_port (_ bv5 9))))
 (let (($x98 (= standard_metadata.ingress_port (_ bv4 9))))
 (let (($x93 (= standard_metadata.ingress_port (_ bv3 9))))
 (let (($x88 (= standard_metadata.ingress_port (_ bv2 9))))
 (let (($x83 (= standard_metadata.ingress_port (_ bv1 9))))
 (let (($x89 (or (or (or false (= standard_metadata.ingress_port (_ bv0 9))) $x83) $x88)))
 (let (($x124 (or (or (or (or (or (or (or $x89 $x93) $x98) $x103) $x108) $x113) $x118) $x123)))
 (let (($x159 (or (or (or (or (or (or (or $x124 $x128) $x133) $x138) $x143) $x148) $x153) $x158)))
 (or (or (or $x159 $x163) $x168) $x173))))))))))))))))))))))))
(assert
 (let (($x40 (bvugt standard_metadata.ingress_port (concat (_ bv0 5) (_ bv15 4)))))
 (let (($x34 (bvugt standard_metadata.ingress_port (concat (_ bv0 5) (_ bv10 4)))))
 (let (($x36 (and true $x34)))
 (let (($x42 (and $x36 $x40)))
 (let (($x43 (and $x36 (not $x40))))
 (let (($x53 (bvugt standard_metadata.ingress_port (concat (_ bv0 6) (_ bv5 3)))))
 (let (($x37 (and true (not $x34))))
 (let (($x55 (and $x37 $x53)))
 (let ((?x57 (ite $x55 (_ bv511 9) (ite $x43 (_ bv511 9) (ite $x42 (_ bv511 9) standard_metadata.egress_spec)))))
 (let (($x56 (and $x37 (not $x53))))
 (let ((?x69 (ite (and true (not (and true (= ethernet.dst_addr (_ bv1 48))))) (_ bv511 9) (ite $x56 (_ bv511 9) ?x57))))
 (let (($x64 (= ethernet.dst_addr (_ bv1 48))))
 (let (($x65 (and true $x64)))
 (let (($x66 (and true $x65)))
 (let ((?x74 (ite $x66 (_ bv1 9) ?x69)))
 (let (($x96 (or (or (or (or false (= ?x74 (_ bv0 9))) (= ?x74 (_ bv1 9))) (= ?x74 (_ bv2 9))) (= ?x74 (_ bv3 9)))))
 (let (($x116 (or (or (or (or $x96 (= ?x74 (_ bv4 9))) (= ?x74 (_ bv5 9))) (= ?x74 (_ bv6 9))) (= ?x74 (_ bv7 9)))))
 (let (($x136 (or (or (or (or $x116 (= ?x74 (_ bv8 9))) (= ?x74 (_ bv9 9))) (= ?x74 (_ bv10 9))) (= ?x74 (_ bv11 9)))))
 (let (($x156 (or (or (or (or $x136 (= ?x74 (_ bv12 9))) (= ?x74 (_ bv13 9))) (= ?x74 (_ bv14 9))) (= ?x74 (_ bv15 9)))))
 (let (($x176 (or (or (or (or $x156 (= ?x74 (_ bv16 9))) (= ?x74 (_ bv17 9))) (= ?x74 (_ bv18 9))) (= ?x74 (_ bv19 9)))))
 (let (($x76 (= ?x74 (_ bv511 9))))
 (or $x76 $x176)))))))))))))))))))))))
(assert
 (let (($x37 (and true (not (bvugt standard_metadata.ingress_port (concat (_ bv0 5) (_ bv10 4)))))))
 (let (($x56 (and $x37 (not (bvugt standard_metadata.ingress_port (concat (_ bv0 6) (_ bv5 3)))))))
 (let (($x53 (bvugt standard_metadata.ingress_port (concat (_ bv0 6) (_ bv5 3)))))
 (let (($x34 (bvugt standard_metadata.ingress_port (concat (_ bv0 5) (_ bv10 4)))))
 (let (($x36 (and true $x34)))
 (let (($x43 (and $x36 (not (bvugt standard_metadata.ingress_port (concat (_ bv0 5) (_ bv15 4)))))))
 (let (($x40 (bvugt standard_metadata.ingress_port (concat (_ bv0 5) (_ bv15 4)))))
 (let (($x62 (ite $x34 (ite $x40 false $x43) (ite $x53 false $x56))))
 (let ((?x47 (ite $x43 (_ bv511 9) (ite (and $x36 $x40) (_ bv511 9) standard_metadata.egress_spec))))
 (let (($x55 (and $x37 $x53)))
 (let ((?x69 (ite (and true (not (and true (= ethernet.dst_addr (_ bv1 48))))) (_ bv511 9) (ite $x56 (_ bv511 9) (ite $x55 (_ bv511 9) ?x47)))))
 (let (($x64 (= ethernet.dst_addr (_ bv1 48))))
 (let (($x65 (and true $x64)))
 (let (($x66 (and true $x65)))
 (let ((?x74 (ite $x66 (_ bv1 9) ?x69)))
 (let (($x76 (= ?x74 (_ bv511 9))))
 (and (and (not $x76) $x62) (= (- 1) (- 1))))))))))))))))))))
(check-sat)

; 
(set-info :status unknown)
(declare-fun standard_metadata.ingress_port () (_ BitVec 9))
(declare-fun standard_metadata.egress_spec () (_ BitVec 9))
(declare-fun ethernet.dst_addr () (_ BitVec 48))
(assert
 (let (($x173 (= standard_metadata.ingress_port (_ bv19 9))))
 (let (($x168 (= standard_metadata.ingress_port (_ bv18 9))))
 (let (($x163 (= standard_metadata.ingress_port (_ bv17 9))))
 (let (($x158 (= standard_metadata.ingress_port (_ bv16 9))))
 (let (($x153 (= standard_metadata.ingress_port (_ bv15 9))))
 (let (($x148 (= standard_metadata.ingress_port (_ bv14 9))))
 (let (($x143 (= standard_metadata.ingress_port (_ bv13 9))))
 (let (($x138 (= standard_metadata.ingress_port (_ bv12 9))))
 (let (($x133 (= standard_metadata.ingress_port (_ bv11 9))))
 (let (($x128 (= standard_metadata.ingress_port (_ bv10 9))))
 (let (($x123 (= standard_metadata.ingress_port (_ bv9 9))))
 (let (($x118 (= standard_metadata.ingress_port (_ bv8 9))))
 (let (($x113 (= standard_metadata.ingress_port (_ bv7 9))))
 (let (($x108 (= standard_metadata.ingress_port (_ bv6 9))))
 (let (($x103 (= standard_metadata.ingress_port (_ bv5 9))))
 (let (($x98 (= standard_metadata.ingress_port (_ bv4 9))))
 (let (($x93 (= standard_metadata.ingress_port (_ bv3 9))))
 (let (($x88 (= standard_metadata.ingress_port (_ bv2 9))))
 (let (($x83 (= standard_metadata.ingress_port (_ bv1 9))))
 (let (($x89 (or (or (or false (= standard_metadata.ingress_port (_ bv0 9))) $x83) $x88)))
 (let (($x124 (or (or (or (or (or (or (or $x89 $x93) $x98) $x103) $x108) $x113) $x118) $x123)))
 (let (($x159 (or (or (or (or (or (or (or $x124 $x128) $x133) $x138) $x143) $x148) $x153) $x158)))
 (or (or (or $x159 $x163) $x168) $x173))))))))))))))))))))))))
(assert
 (let (($x40 (bvugt standard_metadata.ingress_port (concat (_ bv0 5) (_ bv15 4)))))
 (let (($x34 (bvugt standard_metadata.ingress_port (concat (_ bv0 5) (_ bv10 4)))))
 (let (($x36 (and true $x34)))
 (let (($x42 (and $x36 $x40)))
 (let (($x43 (and $x36 (not $x40))))
 (let (($x53 (bvugt standard_metadata.ingress_port (concat (_ bv0 6) (_ bv5 3)))))
 (let (($x37 (and true (not $x34))))
 (let (($x55 (and $x37 $x53)))
 (let ((?x57 (ite $x55 (_ bv511 9) (ite $x43 (_ bv511 9) (ite $x42 (_ bv511 9) standard_metadata.egress_spec)))))
 (let (($x56 (and $x37 (not $x53))))
 (let ((?x69 (ite (and true (not (and true (= ethernet.dst_addr (_ bv1 48))))) (_ bv511 9) (ite $x56 (_ bv511 9) ?x57))))
 (let (($x64 (= ethernet.dst_addr (_ bv1 48))))
 (let (($x65 (and true $x64)))
 (let (($x66 (and true $x65)))
 (let ((?x74 (ite $x66 (_ bv1 9) ?x69)))
 (let (($x96 (or (or (or (or false (= ?x74 (_ bv0 9))) (= ?x74 (_ bv1 9))) (= ?x74 (_ bv2 9))) (= ?x74 (_ bv3 9)))))
 (let (($x116 (or (or (or (or $x96 (= ?x74 (_ bv4 9))) (= ?x74 (_ bv5 9))) (= ?x74 (_ bv6 9))) (= ?x74 (_ bv7 9)))))
 (let (($x136 (or (or (or (or $x116 (= ?x74 (_ bv8 9))) (= ?x74 (_ bv9 9))) (= ?x74 (_ bv10 9))) (= ?x74 (_ bv11 9)))))
 (let (($x156 (or (or (or (or $x136 (= ?x74 (_ bv12 9))) (= ?x74 (_ bv13 9))) (= ?x74 (_ bv14 9))) (= ?x74 (_ bv15 9)))))
 (let (($x176 (or (or (or (or $x156 (= ?x74 (_ bv16 9))) (= ?x74 (_ bv17 9))) (= ?x74 (_ bv18 9))) (= ?x74 (_ bv19 9)))))
 (let (($x76 (= ?x74 (_ bv511 9))))
 (or $x76 $x176)))))))))))))))))))))))
(assert
 (let (($x64 (= ethernet.dst_addr (_ bv1 48))))
 (let (($x65 (and true $x64)))
 (let (($x66 (and true $x65)))
 (let ((?x71 (ite $x66 0 (- 1))))
 (let (($x40 (bvugt standard_metadata.ingress_port (concat (_ bv0 5) (_ bv15 4)))))
 (let (($x34 (bvugt standard_metadata.ingress_port (concat (_ bv0 5) (_ bv10 4)))))
 (let (($x36 (and true $x34)))
 (let (($x42 (and $x36 $x40)))
 (let (($x43 (and $x36 (not $x40))))
 (let (($x53 (bvugt standard_metadata.ingress_port (concat (_ bv0 6) (_ bv5 3)))))
 (let (($x37 (and true (not $x34))))
 (let (($x55 (and $x37 $x53)))
 (let ((?x57 (ite $x55 (_ bv511 9) (ite $x43 (_ bv511 9) (ite $x42 (_ bv511 9) standard_metadata.egress_spec)))))
 (let (($x56 (and $x37 (not $x53))))
 (let ((?x74 (ite $x66 (_ bv1 9) (ite (and true (not $x65)) (_ bv511 9) (ite $x56 (_ bv511 9) ?x57)))))
 (let (($x76 (= ?x74 (_ bv511 9))))
 (and (and (not $x76) true) (= ?x71 (- 1))))))))))))))))))))
(check-sat)

; 
(set-info :status unknown)
(declare-fun standard_metadata.ingress_port () (_ BitVec 9))
(declare-fun standard_metadata.egress_spec () (_ BitVec 9))
(declare-fun ethernet.dst_addr () (_ BitVec 48))
(assert
 (let (($x173 (= standard_metadata.ingress_port (_ bv19 9))))
 (let (($x168 (= standard_metadata.ingress_port (_ bv18 9))))
 (let (($x163 (= standard_metadata.ingress_port (_ bv17 9))))
 (let (($x158 (= standard_metadata.ingress_port (_ bv16 9))))
 (let (($x153 (= standard_metadata.ingress_port (_ bv15 9))))
 (let (($x148 (= standard_metadata.ingress_port (_ bv14 9))))
 (let (($x143 (= standard_metadata.ingress_port (_ bv13 9))))
 (let (($x138 (= standard_metadata.ingress_port (_ bv12 9))))
 (let (($x133 (= standard_metadata.ingress_port (_ bv11 9))))
 (let (($x128 (= standard_metadata.ingress_port (_ bv10 9))))
 (let (($x123 (= standard_metadata.ingress_port (_ bv9 9))))
 (let (($x118 (= standard_metadata.ingress_port (_ bv8 9))))
 (let (($x113 (= standard_metadata.ingress_port (_ bv7 9))))
 (let (($x108 (= standard_metadata.ingress_port (_ bv6 9))))
 (let (($x103 (= standard_metadata.ingress_port (_ bv5 9))))
 (let (($x98 (= standard_metadata.ingress_port (_ bv4 9))))
 (let (($x93 (= standard_metadata.ingress_port (_ bv3 9))))
 (let (($x88 (= standard_metadata.ingress_port (_ bv2 9))))
 (let (($x83 (= standard_metadata.ingress_port (_ bv1 9))))
 (let (($x89 (or (or (or false (= standard_metadata.ingress_port (_ bv0 9))) $x83) $x88)))
 (let (($x124 (or (or (or (or (or (or (or $x89 $x93) $x98) $x103) $x108) $x113) $x118) $x123)))
 (let (($x159 (or (or (or (or (or (or (or $x124 $x128) $x133) $x138) $x143) $x148) $x153) $x158)))
 (or (or (or $x159 $x163) $x168) $x173))))))))))))))))))))))))
(assert
 (let (($x40 (bvugt standard_metadata.ingress_port (concat (_ bv0 5) (_ bv15 4)))))
 (let (($x34 (bvugt standard_metadata.ingress_port (concat (_ bv0 5) (_ bv10 4)))))
 (let (($x36 (and true $x34)))
 (let (($x42 (and $x36 $x40)))
 (let (($x43 (and $x36 (not $x40))))
 (let (($x53 (bvugt standard_metadata.ingress_port (concat (_ bv0 6) (_ bv5 3)))))
 (let (($x37 (and true (not $x34))))
 (let (($x55 (and $x37 $x53)))
 (let ((?x57 (ite $x55 (_ bv511 9) (ite $x43 (_ bv511 9) (ite $x42 (_ bv511 9) standard_metadata.egress_spec)))))
 (let (($x56 (and $x37 (not $x53))))
 (let ((?x69 (ite (and true (not (and true (= ethernet.dst_addr (_ bv1 48))))) (_ bv511 9) (ite $x56 (_ bv511 9) ?x57))))
 (let (($x64 (= ethernet.dst_addr (_ bv1 48))))
 (let (($x65 (and true $x64)))
 (let (($x66 (and true $x65)))
 (let ((?x74 (ite $x66 (_ bv1 9) ?x69)))
 (let (($x96 (or (or (or (or false (= ?x74 (_ bv0 9))) (= ?x74 (_ bv1 9))) (= ?x74 (_ bv2 9))) (= ?x74 (_ bv3 9)))))
 (let (($x116 (or (or (or (or $x96 (= ?x74 (_ bv4 9))) (= ?x74 (_ bv5 9))) (= ?x74 (_ bv6 9))) (= ?x74 (_ bv7 9)))))
 (let (($x136 (or (or (or (or $x116 (= ?x74 (_ bv8 9))) (= ?x74 (_ bv9 9))) (= ?x74 (_ bv10 9))) (= ?x74 (_ bv11 9)))))
 (let (($x156 (or (or (or (or $x136 (= ?x74 (_ bv12 9))) (= ?x74 (_ bv13 9))) (= ?x74 (_ bv14 9))) (= ?x74 (_ bv15 9)))))
 (let (($x176 (or (or (or (or $x156 (= ?x74 (_ bv16 9))) (= ?x74 (_ bv17 9))) (= ?x74 (_ bv18 9))) (= ?x74 (_ bv19 9)))))
 (let (($x76 (= ?x74 (_ bv511 9))))
 (or $x76 $x176)))))))))))))))))))))))
(assert
 (let (($x64 (= ethernet.dst_addr (_ bv1 48))))
 (let (($x65 (and true $x64)))
 (let (($x66 (and true $x65)))
 (let ((?x71 (ite $x66 0 (- 1))))
 (let (($x40 (bvugt standard_metadata.ingress_port (concat (_ bv0 5) (_ bv15 4)))))
 (let (($x34 (bvugt standard_metadata.ingress_port (concat (_ bv0 5) (_ bv10 4)))))
 (let (($x36 (and true $x34)))
 (let (($x42 (and $x36 $x40)))
 (let (($x43 (and $x36 (not $x40))))
 (let (($x53 (bvugt standard_metadata.ingress_port (concat (_ bv0 6) (_ bv5 3)))))
 (let (($x37 (and true (not $x34))))
 (let (($x55 (and $x37 $x53)))
 (let ((?x57 (ite $x55 (_ bv511 9) (ite $x43 (_ bv511 9) (ite $x42 (_ bv511 9) standard_metadata.egress_spec)))))
 (let (($x56 (and $x37 (not $x53))))
 (let ((?x74 (ite $x66 (_ bv1 9) (ite (and true (not $x65)) (_ bv511 9) (ite $x56 (_ bv511 9) ?x57)))))
 (let (($x76 (= ?x74 (_ bv511 9))))
 (let (($x272 (and (not $x76) true)))
 (and $x272 (= ?x71 0))))))))))))))))))))
(check-sat)

